c ! encoding i-pc 250
p cnf 525 857
-251 0
45 -252 0
251 -253 0
251 -254 0
251 -255 0
251 -256 0
-3 -257 0
-119 -257 0
126 -257 0
257 -259 0
258 -259 0
259 -260 0
5 -260 0
-126 -262 0
261 -262 0
262 -263 0
3 -263 0
-119 -265 0
264 -265 0
265 -266 0
-3 -266 0
263 266 -267 0
267 -268 0
-242 -268 0
268 -269 0
-5 -269 0
260 269 -270 0
66 -271 0
86 -271 0
272 0
273 -274 0
274 -275 0
-86 -275 0
271 275 -276 0
277 -279 0
278 -279 0
276 -280 0
53 -280 0
279 -280 0
280 -281 0
184 -281 0
277 -282 0
278 -282 0
282 -283 0
53 -283 0
277 -284 0
284 -285 0
191 -285 0
-84 -286 0
-191 -286 0
285 286 -287 0
287 -288 0
-53 -288 0
283 288 -289 0
289 -291 0
66 -291 0
290 -291 0
291 -292 0
-184 -292 0
281 292 -293 0
206 -294 0
225 -294 0
295 -296 0
296 -297 0
-225 -297 0
294 297 -298 0
270 -299 0
293 -299 0
298 -299 0
299 -300 0
229 -300 0
257 -302 0
258 -302 0
301 -302 0
302 -303 0
5 -303 0
-242 -304 0
267 -305 0
304 -305 0
305 -306 0
-5 -306 0
303 306 -307 0
273 -308 0
308 -309 0
184 -309 0
66 -310 0
-184 -310 0
309 310 -311 0
311 -312 0
277 -312 0
278 -312 0
312 -313 0
53 -313 0
66 -314 0
-184 -314 0
287 -315 0
314 -315 0
315 -316 0
-53 -316 0
313 316 -317 0
-86 -318 0
-206 -318 0
-225 -318 0
307 -319 0
317 -319 0
318 -319 0
319 -320 0
-229 -320 0
300 320 -321 0
123 -322 0
323 -324 0
324 -325 0
-123 -325 0
7 -327 0
67 -327 0
-108 -327 0
114 -327 0
124 -327 0
195 -327 0
209 -327 0
-237 -327 0
328 -334 0
329 -334 0
330 -334 0
331 -334 0
332 -334 0
333 -334 0
321 -335 0
326 -335 0
334 -335 0
338 -339 0
251 -341 0
251 -345 0
251 -350 0
251 -365 0
251 -368 0
162 -372 0
251 -373 0
251 -374 0
251 -375 0
251 -376 0
209 -377 0
184 -377 0
378 -379 0
379 -380 0
-184 -380 0
377 380 -381 0
381 -382 0
277 -382 0
278 -382 0
382 -383 0
53 -383 0
287 -384 0
-184 -384 0
378 -384 0
384 -385 0
-53 -385 0
383 385 -386 0
66 -387 0
67 -387 0
86 -387 0
-108 -387 0
114 -387 0
206 -387 0
328 -390 0
329 -390 0
330 -390 0
331 -390 0
388 -390 0
332 -390 0
389 -390 0
333 -390 0
270 -391 0
386 -391 0
326 -391 0
387 -391 0
390 -391 0
391 -392 0
251 -393 0
392 393 -394 0
-237 -395 0
394 -396 0
395 -396 0
396 -397 0
71 -397 0
251 -398 0
251 -399 0
251 -400 0
66 -402 0
401 -402 0
402 -403 0
86 -403 0
108 -404 0
273 -404 0
404 -405 0
-86 -405 0
403 405 -406 0
53 -407 0
209 -407 0
277 -408 0
278 -408 0
406 -409 0
407 -409 0
408 -409 0
409 -410 0
184 -410 0
401 -411 0
411 -412 0
86 -412 0
108 -413 0
-86 -413 0
412 413 -414 0
289 -415 0
414 -415 0
66 -415 0
415 -416 0
378 -416 0
416 -417 0
-184 -417 0
410 417 -418 0
3 -419 0
-5 -419 0
-114 -419 0
-126 -419 0
-140 -419 0
-225 -419 0
-242 -419 0
261 -421 0
420 -421 0
418 -422 0
419 -422 0
421 -422 0
422 -423 0
18 -423 0
67 -424 0
114 -424 0
424 -425 0
225 -425 0
67 -426 0
114 -426 0
420 -427 0
427 -428 0
-114 -428 0
426 428 -429 0
429 -430 0
-225 -430 0
425 430 -431 0
-5 -432 0
-126 -432 0
-242 -432 0
431 -433 0
432 -433 0
433 -434 0
261 -434 0
434 -435 0
3 -435 0
126 -436 0
258 -436 0
436 -437 0
5 -437 0
-242 -438 0
264 -438 0
438 -439 0
-5 -439 0
437 439 -440 0
67 -441 0
114 -441 0
-119 -441 0
440 -442 0
441 -442 0
388 -442 0
442 -443 0
-3 -443 0
435 443 -444 0
66 -445 0
86 -445 0
-108 -445 0
444 -446 0
386 -446 0
445 -446 0
446 -447 0
328 -447 0
447 -448 0
-18 -448 0
423 448 -449 0
206 -450 0
451 -452 0
329 -452 0
331 -452 0
332 -452 0
333 -452 0
449 -453 0
326 -453 0
450 -453 0
452 -453 0
453 -454 0
400 454 -455 0
455 -457 0
456 -457 0
457 -458 0
7 -458 0
206 -459 0
451 -460 0
329 -460 0
331 -460 0
332 -460 0
333 -460 0
449 -461 0
326 -461 0
459 -461 0
460 -461 0
461 -462 0
-7 -462 0
458 462 -463 0
463 -464 0
399 464 -465 0
465 -467 0
466 -467 0
467 -468 0
398 468 -469 0
-155 -470 0
469 -471 0
470 -471 0
471 -472 0
-71 -472 0
473 -475 0
251 -481 0
251 -495 0
251 -498 0
251 -503 0
-162 -507 0
508 -509 0
251 -510 0
251 -513 0
-45 -516 0
251 -519 0
251 -523 0
1 0
2 0
4 0
-6 0
8 0
-9 0
-11 0
-12 0
-13 0
14 0
-15 0
16 0
-17 0
-20 0
-21 0
22 0
-23 0
-24 0
25 0
-27 0
28 0
29 0
31 0
32 0
-33 0
-34 0
-35 0
36 0
-37 0
38 0
39 0
41 0
42 0
-46 0
-47 0
49 0
50 0
-51 0
-52 0
-54 0
55 0
56 0
-57 0
-58 0
59 0
-60 0
-61 0
62 0
63 0
64 0
-65 0
68 0
69 0
-70 0
72 0
-73 0
-74 0
-75 0
-76 0
77 0
78 0
-80 0
-81 0
-82 0
-83 0
-85 0
-87 0
88 0
89 0
-90 0
-91 0
-92 0
93 0
94 0
-95 0
96 0
97 0
100 0
101 0
-102 0
103 0
104 0
106 0
-107 0
-109 0
110 0
111 0
112 0
-113 0
-115 0
-116 0
117 0
-118 0
-120 0
121 0
122 0
125 0
127 0
128 0
129 0
-132 0
-133 0
134 0
135 0
-136 0
-137 0
138 0
139 0
141 0
-142 0
-143 0
-144 0
145 0
-146 0
-147 0
148 0
-150 0
-151 0
-152 0
153 0
154 0
-157 0
158 0
160 0
-161 0
163 0
-164 0
165 0
-166 0
-167 0
-168 0
-169 0
-170 0
-171 0
-172 0
174 0
175 0
176 0
177 0
-178 0
179 0
180 0
181 0
-182 0
-183 0
185 0
186 0
-187 0
-188 0
190 0
192 0
-193 0
-194 0
196 0
-197 0
-198 0
199 0
200 0
-201 0
202 0
203 0
204 0
205 0
-208 0
-210 0
211 0
-212 0
-213 0
-214 0
-216 0
-217 0
-218 0
-219 0
-220 0
-221 0
222 0
-223 0
224 0
226 0
-227 0
228 0
230 0
-232 0
-233 0
234 0
-236 0
-238 0
239 0
-240 0
241 0
-243 0
-244 0
-245 0
246 0
-247 0
-248 0
-249 0
250 0
-524 525 0
-522 524 0
-521 522 0
-520 521 0
189 519 0
-518 520 0
-517 518 0
-515 516 0
48 513 0
-512 514 0
-511 512 0
79 510 0
-79 509 0
-506 507 0
-504 506 0
-463 464 0
67 420 0
-349 351 0
-379 380 0
-325 326 0
-415 416 0
84 277 286 0
-378 379 384 416 0
-429 430 0
-209 327 377 378 407 0
-114 327 387 424 426 441 0
206 295 318 0
-405 406 0
-324 325 0
-191 278 285 0
-381 382 0
-270 299 391 0
-339 340 0
-437 440 0
-514 515 0
86 275 290 318 405 413 0
-418 422 0
-502 504 0
-448 449 0
-452 453 0
10 331 0
-278 279 282 312 382 408 0
-406 409 0
-478 479 0
-419 422 0
209 378 0
-283 289 0
207 523 0
-277 279 282 284 312 382 408 0
-474 475 0
-279 280 0
-342 343 0
-445 446 0
191 278 286 0
-401 402 411 0
-30 332 0
-340 342 0
-268 269 0
-413 414 0
-273 274 308 404 0
-343 344 0
-317 319 0
-460 461 0
-327 335 0
-271 276 0
-366 367 0
-316 317 0
-421 422 0
-66 271 273 291 310 314 387 402 415 445 0
5 269 306 419 432 439 0
-265 266 0
-323 324 0
-269 270 0
-337 339 0
-455 457 0
-516 517 0
-276 280 0
-284 285 0
119 257 261 265 441 0
-447 448 0
-320 321 0
-321 335 0
235 323 0
-159 256 398 0
66 273 0
-257 259 302 0
-119 261 0
-237 451 0
-289 291 415 0
-156 255 375 0
-297 298 0
-274 275 0
-344 346 0
-215 253 373 0
-457 458 0
-259 260 0
-287 288 315 384 0
-299 300 0
-420 421 427 0
-300 321 0
-367 369 0
-328 334 390 447 0
-184 281 309 377 410 0
-348 349 0
-282 283 0
-408 409 0
-382 383 0
-84 277 0
-416 417 0
-295 296 0
149 365 495 0
-43 333 0
-53 280 283 313 383 407 0
-19 254 374 0
-363 364 0
-275 276 0
-346 348 0
-459 461 0
-281 293 0
-472 473 0
-424 425 0
-242 258 0
-294 298 0
-475 476 0
242 258 268 304 419 432 438 0
-296 297 0
-473 475 0
-195 327 0
-260 270 0
-336 337 0
-263 267 0
-412 414 0
-454 455 0
-285 287 0
-384 385 0
126 262 264 419 432 0
53 288 316 385 0
-388 390 442 0
-86 271 290 387 403 412 445 0
-288 289 0
-291 292 0
184 292 310 314 380 384 417 0
-293 299 0
-397 473 0
-286 287 0
225 297 318 388 419 430 0
-312 313 0
-266 267 0
73 370 500 0
-298 299 0
-318 319 0
-26 400 0
-67 327 387 420 424 426 441 0
-3 263 419 435 0
-431 433 0
-40 301 0
-302 303 0
-303 307 0
-304 305 0
-290 291 0
-477 479 0
-308 309 0
-410 418 0
-497 499 0
-442 443 0
-311 312 0
-307 319 0
-476 477 0
-292 293 0
-468 469 0
-126 257 264 436 0
229 320 0
43 333 0
-123 322 0
-438 439 0
-267 268 305 0
-5 260 303 437 0
123 325 0
-436 437 0
-56 327 505 0
99 350 481 0
-310 311 0
-480 482 0
-444 446 0
208 327 474 0
-352 353 0
-10 331 0
-305 306 0
-440 442 0
237 327 395 451 0
-490 491 0
-509 511 0
-390 391 0
-499 501 0
-140 328 0
-356 357 0
140 328 419 0
-231 329 0
231 329 0
-124 327 0
-155 330 0
-439 440 0
155 330 470 0
-330 334 390 0
-469 471 0
-441 442 0
-471 472 0
-334 335 0
-335 336 0
-280 281 0
-338 339 0
-380 381 0
105 341 393 0
-258 259 302 436 0
-414 415 0
71 345 472 0
-394 396 0
-264 265 438 0
201 347 478 0
-347 348 0
-351 353 0
-422 423 0
-362 363 0
-453 454 0
146 352 500 0
-353 354 0
-470 471 0
-306 307 0
3 257 266 443 0
-354 355 0
-355 357 0
98 327 0
-433 434 0
-505 506 0
-404 405 0
-322 326 0
-262 263 0
-313 317 0
-357 358 0
-358 359 0
-359 360 0
-360 361 0
-361 363 0
-301 302 0
95 362 492 0
-467 468 0
30 332 0
-364 366 0
44 368 498 0
-369 371 0
-261 262 421 434 0
-371 372 0
-131 376 0
-425 431 0
-377 381 0
-383 386 0
-385 386 0
-386 391 446 0
-387 391 0
-389 390 0
-409 410 0
-391 392 0
-392 394 0
-395 396 0
-396 397 0
-130 399 0
-108 401 404 413 0
-370 371 0
-402 403 0
-407 409 0
-411 412 0
-417 418 0
-501 502 0
114 419 428 0
-18 423 0
-319 320 0
-423 449 0
-426 429 0
-427 428 0
-428 429 0
-430 431 0
-432 433 0
-434 435 0
-435 444 0
-443 444 0
-446 447 0
-449 453 461 0
-450 453 0
-98 478 0
-451 452 460 0
-225 294 388 425 0
-456 457 0
-458 463 0
-461 462 0
-462 463 0
-464 465 0
-465 467 0
-466 467 0
-309 311 0
-479 480 0
-314 315 0
-482 483 0
-315 316 0
-483 484 0
-484 485 0
-485 487 0
7 389 462 0
-486 487 0
-487 488 0
-488 489 0
-272 274 282 284 296 308 324 379 411 427 0
-489 490 0
236 356 486 0
-491 493 0
-403 406 0
-492 493 0
-493 494 0
-494 496 0
108 327 387 401 445 0
-496 497 0
-500 501 0
173 503 0
